StudentsNr = 10;
InstructorsNr = 93;
DaysNr = 1;
SlotsPerDay = 60;
AvailabilitySlotsLenght = 6;
RoomNr = 1;
ProgrammNr = 1;
DegreeNr = 2;
RolesNr = 4;
CoursesNr = 5;
InstructorsProgramm = [{1}, {1}, {1}, {1}, {1}, {1}, {1}, {1}, {1}, {1}, {1}, {1}, {1}, {1}, {1}, {1}, {1}, {1}, {1}, {1}, {1}, {1}, {1}, {1}, {1}, {1}, {1}, {1}, {1}, {1}, {1}, {1}, {1}, {1}, {1}, {1}, {1}, {1}, {1}, {1}, {1}, {1}, {1}, {1}, {1}, {1}, {1}, {1}, {1}, {1}, {1}, {1}, {1}, {1}, {1}, {1}, {1}, {1}, {1}, {1}, {1}, {1}, {1}, {1}, {1}, {1}, {1}, {1}, {1}, {1}, {1}, {1}, {1}, {1}, {1}, {1}, {1}, {1}, {1}, {1}, {1}, {1}, {1}, {1}, {1}, {1}, {1}, {1}, {1}, {1}, {1}, {1}, {1}];
InstructorRolesPerProgramm = [|{1, 2, 8, 9, 12, 13, 16, 17, 18, 20, 23, 28, 29, 30, 31, 32, 39, 42, 44, 50, 51, 52, 59, 61, 63, 65, 66, 70, 73, 77, 78, 81, 83, 84, 85, 86, 88, 91, 93}, {1, 2, 5, 6, 12, 16, 17, 22, 23, 24, 26, 28, 29, 32, 33, 35, 37, 39, 40, 44, 46, 48, 49, 56, 59, 61, 63, 64, 65, 66, 67, 69, 70, 72, 73, 75, 78, 82, 83, 84, 87}, {5, 8, 14, 15, 16, 21, 22, 23, 26, 30, 32, 33, 35, 36, 37, 38, 42, 46, 47, 49, 50, 58, 63, 64, 66, 69, 72, 74, 75, 83, 88, 89, 91}, {6, 8, 10, 14, 16, 22, 28, 29, 30, 32, 34, 35, 36, 37, 41, 44, 46, 49, 50, 51, 56, 57, 58, 62, 65, 67, 69, 70, 72, 77, 78, 81, 82, 84, 85, 88, 90, 91, 93}|];
InstructorsAvailability = [|1, 0, 1, 0, 0, 0, 0, 1, 1, 1, |1, 1, 1, 1, 1, 1, 1, 1, 1, 1, |1, 1, 1, 1, 1, 1, 0, 1, 1, 1, |0, 0, 0, 1, 1, 1, 1, 1, 1, 1, |0, 0, 1, 1, 1, 1, 1, 0, 0, 1, |1, 1, 1, 0, 0, 1, 1, 1, 1, 1, |0, 0, 0, 1, 0, 1, 1, 1, 0, 1, |1, 0, 1, 1, 1, 1, 1, 1, 0, 1, |0, 1, 1, 0, 0, 0, 1, 1, 0, 1, |0, 1, 0, 0, 1, 1, 1, 0, 0, 1, |0, 1, 1, 1, 1, 1, 1, 1, 1, 0, |1, 1, 1, 1, 1, 1, 0, 0, 0, 1, |0, 1, 1, 1, 1, 1, 1, 1, 1, 1, |0, 0, 1, 1, 1, 1, 1, 1, 1, 1, |0, 1, 1, 0, 1, 1, 1, 1, 0, 0, |0, 1, 1, 1, 1, 1, 1, 1, 1, 1, |0, 1, 1, 1, 1, 1, 1, 0, 0, 0, |1, 1, 1, 1, 1, 1, 1, 1, 1, 1, |0, 1, 1, 1, 1, 1, 1, 1, 1, 1, |1, 1, 1, 1, 1, 1, 1, 1, 1, 1, |0, 1, 1, 1, 1, 1, 1, 1, 1, 1, |1, 1, 1, 1, 1, 1, 1, 1, 0, 0, |0, 0, 0, 0, 1, 0, 0, 1, 1, 0, |0, 0, 1, 1, 1, 1, 0, 1, 1, 1, |0, 0, 1, 1, 1, 1, 1, 0, 1, 1, |0, 1, 1, 1, 1, 1, 1, 1, 1, 1, |1, 1, 1, 1, 1, 1, 1, 1, 1, 1, |1, 1, 1, 0, 1, 1, 1, 1, 1, 1, |1, 1, 1, 1, 1, 1, 1, 1, 1, 1, |0, 0, 1, 1, 1, 1, 1, 1, 1, 1, |1, 1, 1, 1, 1, 1, 1, 1, 1, 1, |0, 1, 1, 1, 1, 1, 1, 1, 1, 1, |1, 1, 1, 1, 1, 1, 1, 1, 1, 1, |0, 1, 0, 1, 1, 1, 0, 1, 1, 1, |0, 1, 1, 0, 1, 1, 0, 1, 1, 0, |0, 0, 1, 1, 1, 1, 1, 1, 1, 1, |0, 1, 1, 1, 1, 1, 1, 1, 1, 1, |1, 0, 1, 1, 1, 0, 0, 0, 0, 1, |1, 1, 1, 1, 1, 1, 1, 1, 1, 1, |0, 1, 1, 1, 1, 1, 1, 1, 1, 1, |1, 1, 1, 1, 1, 1, 1, 1, 1, 1, |1, 1, 1, 1, 1, 1, 1, 1, 1, 1, |0, 1, 0, 0, 1, 1, 1, 0, 0, 1, |0, 0, 0, 1, 1, 1, 1, 1, 1, 1, |1, 0, 1, 1, 1, 1, 1, 1, 1, 0, |0, 0, 1, 1, 1, 1, 1, 0, 1, 1, |1, 0, 1, 1, 1, 1, 1, 1, 0, 0, |1, 0, 1, 1, 1, 0, 0, 1, 1, 1, |0, 0, 0, 1, 0, 0, 0, 1, 1, 1, |1, 1, 1, 1, 1, 1, 1, 1, 1, 1, |1, 1, 0, 1, 1, 1, 1, 1, 1, 0, |0, 1, 1, 1, 1, 0, 1, 0, 1, 1, |0, 1, 1, 1, 1, 0, 0, 0, 0, 1, |1, 1, 1, 1, 1, 1, 1, 1, 1, 1, |0, 1, 1, 1, 1, 1, 0, 0, 1, 0, |1, 1, 1, 0, 1, 1, 1, 0, 1, 1, |1, 1, 1, 1, 1, 1, 1, 1, 1, 1, |0, 0, 0, 1, 1, 0, 0, 0, 0, 0, |0, 1, 1, 1, 1, 1, 1, 1, 0, 1, |1, 1, 1, 1, 0, 1, 1, 1, 1, 1, |0, 1, 0, 1, 1, 1, 1, 1, 1, 1, |1, 0, 1, 1, 1, 1, 1, 1, 1, 1, |0, 1, 0, 0, 0, 0, 0, 1, 1, 1, |0, 1, 1, 1, 1, 1, 1, 1, 1, 1, |0, 1, 1, 0, 1, 1, 1, 1, 1, 1, |0, 0, 0, 0, 0, 0, 0, 1, 1, 0, |0, 0, 0, 0, 0, 0, 1, 1, 1, 0, |0, 0, 1, 0, 0, 0, 0, 0, 0, 1, |0, 0, 1, 1, 1, 1, 0, 0, 1, 0, |0, 1, 1, 1, 1, 1, 1, 1, 1, 1, |1, 1, 1, 1, 1, 1, 1, 1, 1, 1, |0, 1, 1, 1, 1, 1, 0, 1, 1, 1, |0, 0, 0, 1, 1, 0, 1, 1, 1, 1, |1, 1, 1, 1, 0, 1, 1, 1, 1, 1, |0, 1, 1, 1, 1, 1, 1, 1, 0, 1, |0, 0, 1, 1, 1, 1, 1, 1, 1, 0, |0, 1, 1, 1, 1, 1, 1, 1, 1, 1, |0, 0, 0, 0, 0, 0, 1, 1, 1, 1, |1, 0, 1, 1, 1, 1, 1, 0, 1, 0, |0, 1, 1, 0, 1, 1, 1, 1, 1, 1, |0, 1, 1, 1, 1, 1, 1, 0, 0, 0, |0, 1, 1, 1, 1, 0, 1, 1, 0, 1, |1, 1, 1, 1, 1, 1, 1, 1, 1, 1, |1, 1, 0, 1, 0, 1, 1, 0, 1, 1, |0, 0, 1, 1, 1, 1, 1, 1, 1, 1, |1, 1, 1, 0, 0, 0, 0, 1, 1, 1, |0, 1, 1, 1, 1, 0, 1, 1, 1, 1, |1, 1, 1, 1, 0, 1, 1, 1, 1, 0, |0, 1, 1, 1, 0, 1, 1, 1, 1, 0, |0, 1, 1, 1, 1, 1, 1, 1, 1, 1, |0, 0, 1, 1, 0, 1, 1, 0, 0, 1, |0, 1, 1, 1, 0, 1, 1, 0, 0, 0, |1, 1, 1, 1, 0, 1, 1, 1, 1, 1|];
StudentsProgramm = [1, 1, 1, 1, 1, 1, 1, 1, 1, 1];
StudentsDegree = [2, 1, 2, 2, 1, 1, 2, 1, 1, 1];
StudentsSupervisorId = [69, 83, 19, 11, 12, 69, 80, 93, 11, 40];
StudentsCourseIds = [{1, 2, 3, 4, 5}, {1, 2, 3, 4, 5}, {1, 2, 3, 4, 5}, {1, 2, 3, 4, 5}, {1, 2, 3, 4, 5}, {1, 2, 3, 4, 5}, {1, 2, 3, 4, 5}, {1, 2, 3, 4, 5}, {1, 2, 3, 4, 5}, {1, 2, 3, 4, 5}];
StudentsAvailability = [|0, 1, 1, 1, 1, 1, 1, 1, 1, 1, |0, 0, 1, 1, 1, 1, 1, 1, 0, 0, |1, 1, 0, 1, 1, 1, 1, 1, 1, 1, |1, 1, 1, 1, 1, 1, 1, 0, 0, 0, |1, 1, 1, 1, 1, 1, 1, 1, 1, 1, |1, 1, 0, 0, 1, 1, 1, 1, 1, 1, |0, 1, 1, 0, 1, 1, 1, 1, 1, 1, |1, 1, 1, 0, 1, 1, 1, 1, 1, 1, |0, 0, 0, 1, 1, 1, 1, 1, 1, 1, |0, 1, 1, 1, 1, 1, 1, 1, 1, 1|];
TheoryticalMinCard = [0, 0, 0, 0, 0, 0, 0, 0, 0, 0];
CoursesInstructorIds = [{1, 3, 7, 9, 11, 13, 14, 16, 21, 29, 35, 36, 38, 40, 41, 44, 48, 49, 52, 54, 56, 58, 59, 62, 63, 64, 65, 66, 68, 69, 72, 73, 78, 84, 87, 88, 89, 90}, {2, 3, 5, 6, 7, 8, 12, 14, 15, 19, 24, 25, 27, 29, 32, 34, 39, 41, 42, 44, 48, 49, 51, 53, 56, 60, 61, 65, 66, 68, 69, 71, 72, 75, 77, 79, 82, 83, 84, 88, 90, 91, 92}, {1, 2, 5, 7, 8, 12, 13, 16, 19, 21, 22, 28, 29, 33, 35, 38, 41, 42, 43, 44, 45, 46, 47, 48, 49, 50, 53, 54, 56, 60, 61, 62, 63, 66, 67, 69, 75, 77, 78, 79, 80, 81, 83, 84, 87, 88, 90, 93}, {2, 4, 5, 8, 10, 12, 13, 14, 16, 19, 23, 24, 25, 26, 28, 31, 32, 35, 41, 42, 44, 45, 47, 48, 49, 50, 51, 52, 55, 56, 58, 59, 64, 66, 68, 69, 70, 76, 77, 81, 85, 86, 87, 90, 92, 93}, {19, 40, 51, 57, 61, 62, 63, 66, 81}];
RolesDemands = [9, 3, 26, 35];
RolesContinuity = [3];
ExamLen = [1, 2, 1, 1, 2, 2, 1, 2, 2, 2];
LunchTsMinLen = 1;
LunchStarts = [30..44];
SupervisorAvailable = 5;
OptimalLunchLenght = [2, 1];
OptimalStartTs = [2, 0];
OptimalFinishTs = [0, 60];
MinimizeRooms = 500;
RolesSoftContinuity = [|1, 2, 3, 4|3, 4, 3, 1|];
SameDegreeInRoom = 20;
Mergeability = 2;
